SECTION Graph 
Nodes 1221
Edges 2414
E 1 1076 5
E 1 1083 1
E 1 1085 2
E 1 1086 6
E 2 3 1
E 2 1099 2
E 3 1102 2
E 4 1083 6
E 4 1086 1
E 4 1095 6
E 5 1085 6
E 5 1086 2
E 5 1105 6
E 5 1137 43
E 6 867 1
E 6 868 1
E 7 874 1
E 7 875 1
E 7 887 1
E 7 898 3
E 8 896 1
E 8 897 1
E 8 901 1
E 8 906 3
E 9 921 3
E 10 219 1
E 10 868 3
E 11 901 3
E 11 906 1
E 11 909 1
E 11 927 12
E 12 14 1
E 12 1133 20
E 12 1145 6
E 13 1147 1
E 13 1148 1
E 14 16 1
E 14 1132 20
E 14 1144 6
E 15 17 1
E 15 1144 6
E 15 1147 1
E 15 1148 1
E 16 1131 20
E 16 1136 16
E 16 1143 6
E 17 1142 16
E 17 1143 6
E 17 1146 1
E 18 30 6
E 18 925 1
E 18 926 1
E 18 928 3
E 19 223 6
E 19 937 1
E 20 223 1
E 20 912 12
E 20 929 1
E 20 937 6
E 21 223 1
E 21 931 1
E 22 1119 2
E 22 1123 1
E 22 1127 1
E 23 25 1
E 23 1127 12
E 23 1136 5
E 24 25 12
E 24 26 1
E 24 1123 1
E 24 1127 1
E 25 27 1
E 25 1135 5
E 26 27 12
E 26 1111 11
E 26 1120 1
E 27 1126 11
E 27 1134 5
E 28 29 1
E 28 41 1
E 28 837 10
E 28 872 3
E 29 42 1
E 29 864 1
E 29 880 3
E 30 913 1
E 30 914 1
E 30 918 1
E 31 857 10
E 31 872 6
E 31 903 1
E 31 911 5
E 32 38 3
E 32 224 1
E 32 891 6
E 32 917 5
E 33 34 1
E 33 860 2
E 33 882 5
E 34 35 1
E 34 874 5
E 35 867 5
E 36 895 3
E 36 900 1
E 36 905 1
E 36 915 6
E 37 915 5
E 37 922 1
E 37 1029 68
E 38 900 6
E 38 915 1
E 38 922 5
E 39 905 6
E 39 915 1
E 39 1024 67
E 40 801 2
E 40 807 1
E 40 817 1
E 40 818 1
E 41 42 1
E 41 834 10
E 41 850 2
E 42 854 2
E 42 859 1
E 43 58 10
E 43 812 5
E 43 841 1
E 43 847 6
E 44 53 3
E 44 225 1
E 44 829 5
E 44 855 6
E 45 47 1
E 45 993 5
E 45 996 1
E 45 1022 22
E 46 1005 1
E 46 1006 1
E 46 1010 2
E 46 1040 22
E 47 49 1
E 47 991 5
E 47 995 1
E 48 50 1
E 48 1002 6
E 48 1005 1
E 48 1006 1
E 49 843 67
E 49 988 5
E 49 994 1
E 50 878 67
E 50 1000 6
E 50 1004 1
E 51 839 1
E 51 840 1
E 51 845 1
E 51 848 5
E 52 848 6
E 52 862 1
E 52 878 1
E 52 879 1
E 53 840 5
E 53 848 1
E 53 862 6
E 54 845 5
E 54 848 1
E 54 878 6
E 54 1000 67
E 55 747 1
E 55 762 2
E 55 763 2
E 56 762 2
E 56 763 2
E 56 775 1
E 56 807 10
E 57 58 2
E 57 768 5
E 57 781 1
E 57 808 6
E 58 775 5
E 58 834 9
E 59 729 1
E 59 730 1
E 59 746 2
E 59 747 2
E 60 724 2
E 60 741 1
E 60 779 9
E 61 226 1
E 61 682 9
E 61 721 5
E 62 226 1
E 62 694 9
E 62 719 2
E 62 729 5
E 63 64 1
E 63 77 1
E 63 694 12
E 63 734 3
E 64 78 1
E 64 728 1
E 64 739 3
E 65 787 1
E 65 788 1
E 65 793 1
E 65 797 2
E 66 719 10
E 66 734 6
E 66 770 1
E 66 783 5
E 67 74 3
E 67 227 1
E 67 753 6
E 67 792 5
E 68 82 7
E 68 1044 1
E 68 1051 1
E 68 1063 6
E 69 1063 5
E 69 1067 1
E 69 1070 1
E 69 1079 6
E 70 979 55
E 70 1044 6
E 70 1063 1
E 70 1067 5
E 71 1051 6
E 71 1063 1
E 71 1070 5
E 71 1082 12
E 72 757 3
E 72 767 1
E 72 774 1
E 72 790 6
E 73 790 5
E 73 804 1
E 73 815 1
E 73 816 1
E 74 767 6
E 74 790 1
E 74 804 5
E 75 774 6
E 75 790 1
E 75 815 5
E 75 976 67
E 76 665 3
E 76 671 1
E 76 679 1
E 76 680 1
E 77 78 1
E 77 688 12
E 77 710 3
E 78 714 3
E 78 722 1
E 79 654 12
E 79 675 5
E 79 703 1
E 79 710 6
E 80 87 3
E 80 228 1
E 80 693 5
E 80 718 6
E 81 145 79
E 81 1020 1
E 81 1021 1
E 81 1028 5
E 82 1028 6
E 82 1033 1
E 82 1034 1
E 83 934 57
E 83 1020 5
E 83 1028 1
E 83 1033 6
E 84 1021 5
E 84 1028 1
E 84 1034 6
E 84 1048 12
E 85 701 1
E 85 702 1
E 85 706 1
E 85 713 5
E 86 713 6
E 86 726 1
E 86 738 1
E 86 751 3
E 87 702 5
E 87 713 1
E 87 726 6
E 88 706 5
E 88 713 1
E 88 738 6
E 88 934 67
E 89 607 1
E 89 608 1
E 89 614 2
E 89 616 4
E 90 605 2
E 90 612 1
E 91 229 1
E 91 603 5
E 92 96 18
E 92 229 1
E 92 607 5
E 93 94 1
E 93 105 1
E 93 622 3
E 94 106 1
E 94 619 1
E 94 626 3
E 95 656 1
E 95 657 1
E 95 662 1
E 95 665 2
E 96 622 6
E 96 647 1
E 96 653 5
E 97 102 3
E 97 230 1
E 97 633 6
E 97 661 5
E 98 999 65
E 98 1090 1
E 98 1112 12
E 99 1090 12
E 99 1112 1
E 99 1150 58
E 100 636 3
E 100 644 1
E 100 648 1
E 100 659 6
E 101 659 5
E 101 669 1
E 101 677 1
E 101 678 1
E 102 644 6
E 102 659 1
E 102 669 5
E 103 648 6
E 103 659 1
E 103 677 5
E 104 115 5
E 104 586 1
E 104 591 1
E 104 592 1
E 105 106 1
E 105 606 3
E 106 610 3
E 106 615 1
E 107 588 5
E 107 600 1
E 107 606 6
E 108 111 3
E 108 231 1
E 108 596 5
E 108 613 6
E 109 598 1
E 109 599 1
E 109 602 1
E 109 609 5
E 110 609 6
E 110 617 1
E 110 625 1
E 110 631 3
E 111 599 5
E 111 609 1
E 111 617 6
E 112 602 5
E 112 609 1
E 112 625 6
E 113 114 1
E 113 125 1
E 113 563 3
E 114 126 1
E 114 560 1
E 114 565 3
E 115 578 1
E 115 579 1
E 115 583 1
E 116 563 6
E 116 575 1
E 116 577 5
E 117 122 3
E 117 232 1
E 117 570 6
E 117 582 5
E 118 130 5
E 118 959 54
E 118 1035 1
E 118 1061 12
E 119 1035 12
E 119 1061 1
E 120 572 3
E 120 574 1
E 120 576 1
E 120 580 6
E 121 580 5
E 121 585 1
E 121 589 1
E 121 590 1
E 122 574 6
E 122 580 1
E 122 585 5
E 123 576 6
E 123 580 1
E 123 589 5
E 124 140 5
E 124 523 1
E 124 529 1
E 124 530 1
E 125 126 1
E 125 549 3
E 126 552 3
E 126 556 1
E 127 526 5
E 127 541 1
E 127 549 6
E 128 133 3
E 128 233 1
E 128 534 5
E 128 554 6
E 129 992 22
E 129 1012 1
E 129 1030 12
E 130 943 54
E 130 1012 12
E 130 1030 1
E 131 539 1
E 131 540 1
E 131 543 1
E 131 551 5
E 132 551 6
E 132 558 1
E 132 564 1
E 132 568 3
E 133 540 5
E 133 551 1
E 133 558 6
E 134 543 5
E 134 551 1
E 134 564 6
E 135 136 1
E 135 462 5
E 135 483 1
E 136 137 1
E 136 457 5
E 137 455 5
E 138 139 1
E 138 159 3
E 138 433 12
E 138 479 3
E 139 459 3
E 139 478 2
E 139 482 3
E 140 505 1
E 140 506 1
E 140 515 1
E 141 456 12
E 141 479 6
E 141 498 1
E 141 499 2
E 142 150 3
E 142 234 1
E 142 489 6
E 142 502 2
E 143 414 1
E 143 420 3
E 144 826 4
E 144 838 1
E 144 844 1
E 144 852 6
E 145 852 5
E 145 861 1
E 145 877 1
E 146 838 6
E 146 852 1
E 146 861 5
E 147 844 6
E 147 852 1
E 147 877 5
E 147 902 11
E 148 492 3
E 148 497 1
E 148 509 6
E 149 517 3
E 149 522 1
E 149 527 1
E 149 528 1
E 150 497 6
E 150 509 1
E 150 513 2
E 151 495 9
E 151 509 1
E 151 520 2
E 152 408 3
E 152 414 1
E 152 419 1
E 152 428 3
E 153 418 3
E 153 427 1
E 153 433 1
E 153 437 3
E 154 451 3
E 154 461 1
E 154 462 1
E 155 460 3
E 155 470 1
E 155 475 1
E 155 476 1
E 156 235 1
E 156 438 2
E 156 455 4
E 157 456 2
E 157 460 1
E 157 475 3
E 157 499 12
E 158 170 6
E 158 422 1
E 158 430 1
E 158 459 12
E 159 422 12
E 159 423 12
E 159 459 1
E 160 755 3
E 160 766 1
E 160 773 1
E 160 786 5
E 161 786 6
E 161 803 1
E 161 813 1
E 161 814 1
E 162 766 5
E 162 786 1
E 162 803 6
E 163 187 49
E 163 773 5
E 163 786 1
E 163 813 6
E 164 239 3
E 164 251 1
E 165 242 2
E 165 1001 1
E 166 243 3
E 166 256 1
E 166 924 1
E 166 932 6
E 167 246 2
E 167 953 1
E 167 969 4
E 167 972 6
E 168 169 1
E 168 196 1
E 168 352 10
E 168 381 3
E 169 197 1
E 169 377 1
E 169 383 3
E 170 404 1
E 170 405 1
E 170 410 1
E 171 370 10
E 171 381 6
E 171 401 1
E 171 403 5
E 172 182 3
E 172 247 1
E 172 392 6
E 172 409 5
E 173 174 1
E 173 371 1
E 173 375 1
E 173 393 6
E 174 175 1
E 174 369 1
E 174 389 6
E 175 358 6
E 175 367 1
E 175 385 6
E 176 696 3
E 176 700 1
E 176 705 1
E 176 716 6
E 177 716 5
E 177 725 1
E 177 736 1
E 177 737 1
E 178 538 78
E 178 700 6
E 178 716 1
E 178 725 5
E 179 705 6
E 179 716 1
E 179 731 4
E 179 736 5
E 180 395 3
E 180 399 1
E 180 402 1
E 180 406 6
E 181 406 5
E 181 417 1
E 181 426 1
E 181 544 45
E 182 399 6
E 182 406 1
E 182 417 5
E 183 402 6
E 183 406 1
E 183 429 6
E 183 535 44
E 184 248 5
E 184 935 10
E 185 240 1
E 185 252 5
E 185 974 10
E 185 997 6
E 186 253 5
E 186 748 42
E 186 888 6
E 186 908 1
E 187 244 1
E 187 257 5
E 187 942 6
E 188 258 3
E 188 876 6
E 189 261 2
E 189 924 6
E 189 932 1
E 189 949 10
E 190 651 1
E 190 673 6
E 191 192 1
E 191 193 9
E 191 695 4
E 191 707 1
E 192 673 9
E 192 708 1
E 192 709 2
E 193 651 6
E 193 658 4
E 193 673 1
E 194 673 2
E 194 709 9
E 195 329 2
E 195 333 1
E 195 339 1
E 195 355 6
E 196 197 1
E 196 198 9
E 196 349 10
E 197 355 9
E 197 373 1
E 198 203 10
E 198 333 6
E 198 355 1
E 199 262 1
E 199 343 6
E 199 363 3
E 199 376 9
E 200 300 4
E 200 308 1
E 200 312 2
E 200 313 2
E 201 203 6
E 201 312 2
E 201 313 2
E 201 333 10
E 202 203 2
E 202 313 6
E 202 321 1
E 202 344 9
E 203 349 9
E 204 205 1
E 204 297 2
E 204 303 1
E 204 367 31
E 205 206 1
E 205 295 2
E 207 267 1
E 207 269 3
E 208 415 1
E 208 436 6
E 209 443 3
E 209 449 1
E 209 453 1
E 209 463 4
E 210 293 62
E 210 415 6
E 210 436 1
E 210 439 2
E 211 436 1
E 211 446 2
E 212 267 1
E 212 268 1
E 212 273 3
E 213 272 1
E 213 277 3
E 214 285 3
E 214 289 1
E 214 292 1
E 214 299 4
E 215 291 3
E 215 296 1
E 215 300 1
E 215 308 4
E 216 263 1
E 216 278 2
E 216 287 3
E 217 290 2
E 217 291 1
E 217 298 2
E 217 300 3
E 218 223 1
E 218 928 1
E 218 929 1
E 218 931 1
E 219 875 3
E 219 898 1
E 220 221 1
E 220 887 3
E 220 898 1
E 221 222 1
E 221 892 3
E 222 897 3
E 222 906 1
E 224 885 6
E 224 903 1
E 224 916 5
E 225 824 5
E 225 841 1
E 225 853 6
E 226 689 9
E 226 723 5
E 227 745 6
E 227 770 1
E 227 791 5
E 228 687 5
E 228 703 1
E 228 717 6
E 229 604 5
E 230 629 6
E 230 647 1
E 230 660 5
E 231 595 5
E 231 600 1
E 231 611 6
E 232 567 6
E 232 575 1
E 232 581 5
E 233 533 5
E 233 541 1
E 233 553 6
E 234 485 6
E 234 498 1
E 234 501 2
E 235 442 2
E 235 451 1
E 235 457 4
E 236 237 1
E 236 448 2
E 236 451 1
E 236 461 3
E 237 238 1
E 237 450 2
E 237 465 3
E 238 452 2
E 238 460 1
E 238 470 3
E 239 240 5
E 239 252 1
E 240 241 6
E 241 242 1
E 241 997 1
E 242 998 1
E 243 244 5
E 243 257 1
E 243 936 6
E 244 245 6
E 244 946 6
E 245 246 1
E 245 942 1
E 245 965 6
E 246 947 1
E 246 968 6
E 247 387 6
E 247 401 1
E 247 407 5
E 248 249 1
E 248 940 10
E 249 250 2
E 249 945 10
E 250 251 1
E 250 951 10
E 251 252 3
E 251 955 10
E 252 964 10
E 253 254 1
E 253 771 42
E 253 919 1
E 254 255 2
E 254 776 42
E 254 920 1
E 255 256 1
E 255 782 42
E 255 924 1
E 256 257 3
E 256 802 37
E 257 795 42
E 258 259 6
E 258 893 6
E 259 260 5
E 259 908 6
E 259 933 10
E 260 261 1
E 260 919 6
E 260 938 10
E 261 920 6
E 261 941 10
E 262 339 6
E 262 355 1
E 262 373 9
E 263 280 2
E 263 285 1
E 263 289 3
E 264 265 1
E 264 283 2
E 264 285 1
E 264 292 3
E 265 266 1
E 265 284 2
E 265 294 3
E 266 286 2
E 266 291 1
E 266 296 3
E 267 271 3
E 268 270 1
E 268 274 3
E 269 271 1
E 269 278 6
E 270 272 1
E 270 275 3
E 271 273 1
E 271 280 6
E 272 276 3
E 273 274 1
E 273 281 6
E 274 275 1
E 274 283 6
E 275 276 1
E 275 284 6
E 276 277 1
E 276 286 6
E 277 279 1
E 277 288 6
E 278 280 1
E 279 282 2
E 279 290 6
E 280 281 1
E 281 283 1
E 281 285 2
E 282 293 6
E 282 304 11
E 283 284 1
E 284 286 1
E 286 288 1
E 287 289 1
E 287 295 4
E 288 290 1
E 288 291 2
E 289 297 4
E 290 293 2
E 292 294 1
E 292 301 4
E 293 298 2
E 294 296 1
E 294 302 4
E 295 297 1
E 296 306 4
E 297 299 1
E 298 305 3
E 298 316 10
E 299 301 1
E 299 303 2
E 300 305 2
E 301 302 1
E 301 307 2
E 302 306 1
E 302 309 2
E 303 307 1
E 303 314 6
E 304 318 8
E 304 415 51
E 305 312 4
E 305 323 10
E 306 308 1
E 306 310 2
E 307 309 1
E 307 315 6
E 308 311 2
E 309 310 1
E 309 317 6
E 310 311 1
E 310 319 6
E 311 313 1
E 311 321 6
E 312 327 10
E 314 315 1
E 314 328 9
E 315 317 1
E 315 330 9
E 316 318 1
E 316 323 3
E 317 319 1
E 317 334 9
E 318 320 1
E 318 324 3
E 319 321 1
E 319 337 9
E 320 322 1
E 320 325 3
E 321 340 9
E 322 326 3
E 322 439 49
E 323 324 1
E 323 327 4
E 324 325 1
E 324 329 4
E 325 326 1
E 325 332 4
E 326 336 4
E 326 449 49
E 327 329 1
E 327 333 2
E 328 330 1
E 328 331 1
E 329 332 1
E 330 334 1
E 330 335 1
E 331 335 1
E 331 342 3
E 332 336 1
E 332 339 2
E 334 337 1
E 334 338 1
E 335 338 1
E 335 346 3
E 336 343 2
E 336 458 49
E 337 340 1
E 337 341 1
E 338 341 1
E 338 348 3
E 339 343 1
E 340 344 1
E 340 345 1
E 341 345 1
E 341 350 3
E 342 346 1
E 342 358 6
E 343 351 3
E 344 347 1
E 344 349 2
E 345 347 1
E 345 353 3
E 346 348 1
E 346 360 6
E 347 352 2
E 347 356 3
E 348 350 1
E 348 361 6
E 349 352 1
E 350 353 1
E 350 362 6
E 351 354 1
E 351 363 6
E 352 359 3
E 353 356 1
E 353 364 6
E 354 357 1
E 354 365 6
E 356 359 2
E 356 366 6
E 357 368 6
E 357 468 44
E 358 360 1
E 359 370 6
E 359 381 10
E 360 361 1
E 360 369 5
E 361 362 1
E 361 371 5
E 362 364 1
E 362 372 5
E 363 365 1
E 363 386 9
E 364 366 1
E 364 374 5
E 365 368 1
E 365 390 9
E 366 370 2
E 366 378 5
E 367 414 21
E 368 394 9
E 368 487 44
E 369 371 1
E 370 384 5
E 371 372 1
E 372 374 1
E 372 375 1
E 373 376 1
E 373 377 1
E 374 378 1
E 374 379 1
E 375 379 1
E 375 396 6
E 376 380 1
E 376 386 3
E 377 380 1
E 377 387 3
E 378 382 1
E 378 384 2
E 379 382 1
E 379 398 6
E 380 391 3
E 380 392 3
E 381 383 1
E 382 388 2
E 382 400 6
E 383 387 1
E 383 401 6
E 384 388 1
E 384 403 10
E 385 389 1
E 385 408 12
E 386 390 1
E 386 391 1
E 387 392 1
E 388 405 10
E 389 393 1
E 389 411 12
E 390 394 1
E 390 395 1
E 391 395 1
E 391 399 3
E 392 399 3
E 393 396 1
E 393 413 12
E 394 397 1
E 394 504 44
E 395 397 1
E 396 398 1
E 396 416 12
E 397 402 3
E 397 508 44
E 398 400 1
E 398 418 12
E 400 422 12
E 400 423 12
E 401 404 5
E 402 519 44
E 403 404 1
E 403 405 1
E 404 407 1
E 405 422 6
E 407 409 1
E 407 410 1
E 408 411 1
E 409 412 1
E 409 417 3
E 410 412 1
E 410 430 6
E 411 413 1
E 411 419 3
E 412 421 3
E 412 432 6
E 413 416 1
E 413 424 3
E 414 425 3
E 416 418 1
E 416 427 3
E 417 421 1
E 418 423 1
E 419 424 1
E 419 431 3
E 420 425 1
E 420 438 6
E 421 426 1
E 421 440 6
E 423 433 3
E 424 427 1
E 424 434 3
E 425 428 1
E 425 442 6
E 426 429 1
E 426 444 6
E 427 435 3
E 428 431 1
E 428 445 6
E 429 447 6
E 429 546 44
E 430 432 1
E 430 464 12
E 431 434 1
E 431 448 6
E 432 440 3
E 432 469 12
E 433 441 3
E 434 435 1
E 434 450 6
E 435 437 1
E 435 452 6
E 436 443 2
E 437 441 1
E 437 454 6
E 438 442 1
E 439 443 1
E 439 449 3
E 440 444 1
E 440 477 12
E 441 456 6
E 441 479 12
E 442 445 1
E 443 446 1
E 444 447 1
E 444 481 12
E 445 448 1
E 445 451 2
E 446 453 3
E 447 484 12
E 447 555 44
E 448 450 1
E 449 458 4
E 450 452 1
E 452 454 1
E 453 467 4
E 454 456 1
E 454 460 2
E 455 457 1
E 457 462 1
E 458 463 1
E 458 468 2
E 459 464 1
E 461 465 1
E 461 466 1
E 462 466 1
E 463 467 1
E 463 472 2
E 464 469 1
E 464 485 6
E 465 470 1
E 465 471 1
E 466 471 1
E 466 483 5
E 467 474 2
E 468 472 1
E 468 487 6
E 469 477 3
E 469 478 3
E 470 473 1
E 471 473 1
E 471 486 5
E 472 474 1
E 472 491 6
E 473 476 1
E 473 490 5
E 474 494 6
E 474 639 78
E 475 480 1
E 475 503 12
E 476 480 1
E 476 493 5
E 477 481 1
E 477 488 3
E 478 488 3
E 478 489 3
E 479 482 1
E 480 496 5
E 480 506 12
E 481 484 1
E 481 492 3
E 482 485 1
E 482 498 6
E 483 486 1
E 484 495 3
E 485 489 1
E 486 490 1
E 487 491 1
E 487 504 9
E 488 492 1
E 488 497 3
E 489 497 3
E 490 493 1
E 491 494 1
E 491 507 9
E 492 495 1
E 493 496 1
E 494 511 9
E 494 652 78
E 496 523 12
E 498 500 2
E 499 500 1
E 499 503 3
E 500 501 1
E 500 505 3
E 501 502 1
E 501 510 3
E 502 513 3
E 502 514 3
E 503 505 1
E 503 506 1
E 504 507 1
E 504 508 1
E 505 510 1
E 506 523 5
E 507 511 1
E 507 512 1
E 508 512 1
E 508 519 3
E 509 517 2
E 510 514 1
E 510 515 1
E 511 516 1
E 511 683 78
E 512 516 1
E 512 521 3
E 513 517 1
E 513 522 3
E 514 518 1
E 514 522 3
E 515 518 1
E 515 529 5
E 516 524 3
E 516 691 78
E 517 520 1
E 518 525 3
E 518 532 5
E 519 521 1
E 519 535 6
E 520 527 3
E 521 524 1
E 521 536 6
E 522 525 1
E 523 526 1
E 524 538 6
E 524 700 78
E 525 528 1
E 525 537 5
E 526 530 1
E 527 531 1
E 528 531 1
E 528 539 5
E 529 532 1
E 529 533 1
E 530 533 1
E 530 541 5
E 531 542 5
E 532 534 1
E 532 537 3
E 533 534 1
E 534 540 3
E 535 536 1
E 535 544 5
E 536 538 1
E 536 545 5
E 537 539 1
E 537 540 1
E 538 547 5
E 539 542 1
E 541 552 6
E 542 543 1
E 544 545 1
E 544 546 1
E 545 547 1
E 545 548 1
E 546 548 1
E 546 555 6
E 547 550 1
E 547 725 78
E 548 550 1
E 548 557 6
E 549 552 1
E 550 561 6
E 550 732 78
E 552 553 1
E 553 554 1
E 553 556 3
E 554 558 3
E 554 559 3
E 555 557 1
E 556 559 1
E 556 560 1
E 557 561 1
E 558 566 3
E 559 562 1
E 559 566 3
E 560 562 1
E 560 567 3
E 561 766 78
E 562 569 3
E 562 570 3
E 563 565 1
E 564 571 3
E 565 567 1
E 565 575 6
E 566 568 1
E 566 569 1
E 567 570 1
E 568 571 1
E 568 572 1
E 569 572 1
E 569 574 3
E 570 574 3
E 571 573 1
E 572 573 1
E 573 576 3
E 575 578 5
E 577 578 1
E 577 579 1
E 578 581 1
E 579 586 5
E 581 582 1
E 581 583 1
E 582 584 1
E 582 585 3
E 583 584 1
E 583 591 5
E 584 587 3
E 584 594 5
E 585 587 1
E 586 588 1
E 587 590 1
E 587 597 5
E 588 592 1
E 589 593 1
E 590 593 1
E 590 598 5
E 591 594 1
E 591 595 1
E 592 595 1
E 592 600 5
E 593 601 5
E 594 596 1
E 594 597 3
E 595 596 1
E 596 599 3
E 597 598 1
E 597 599 1
E 598 601 1
E 600 610 6
E 601 602 1
E 603 604 1
E 603 605 1
E 604 607 1
E 604 608 1
E 605 608 1
E 606 610 1
E 607 653 18
E 608 612 2
E 610 611 1
E 611 613 1
E 611 615 3
E 612 614 1
E 613 617 3
E 613 618 3
E 614 624 4
E 615 618 1
E 615 619 1
E 616 620 1
E 616 624 2
E 617 628 3
E 618 621 1
E 618 628 3
E 619 621 1
E 619 629 3
E 620 623 1
E 620 627 2
E 621 632 3
E 621 633 3
E 622 626 1
E 623 630 2
E 623 657 12
E 624 627 1
E 624 634 3
E 625 635 3
E 626 629 1
E 626 647 6
E 627 630 1
E 627 637 3
E 628 631 1
E 628 632 1
E 629 633 1
E 630 641 3
E 630 663 12
E 631 635 1
E 631 636 1
E 632 636 1
E 632 644 3
E 633 644 3
E 634 637 1
E 634 638 1
E 635 640 1
E 636 640 1
E 637 641 1
E 637 642 1
E 638 642 1
E 638 649 5
E 639 643 1
E 639 652 6
E 640 648 3
E 641 645 1
E 641 671 12
E 642 645 1
E 642 650 5
E 643 646 1
E 643 655 6
E 645 654 5
E 645 675 12
E 646 651 4
E 646 658 6
E 647 656 5
E 649 650 1
E 649 666 6
E 650 654 1
E 650 668 6
E 652 655 1
E 652 683 9
E 653 656 1
E 653 657 1
E 654 672 6
E 655 658 1
E 655 690 9
E 656 660 1
E 657 663 2
E 658 695 9
E 660 661 1
E 660 662 1
E 661 664 1
E 661 669 3
E 662 664 1
E 662 667 2
E 663 665 1
E 663 671 3
E 664 670 2
E 664 674 3
E 665 667 1
E 666 668 1
E 666 676 3
E 667 670 1
E 667 679 3
E 668 672 1
E 668 681 3
E 669 674 1
E 670 685 3
E 670 686 3
E 671 675 1
E 672 688 3
E 672 710 12
E 674 678 1
E 674 685 2
E 675 680 1
E 676 681 1
E 676 682 1
E 677 684 1
E 678 684 1
E 678 692 2
E 679 686 1
E 679 687 1
E 680 687 1
E 680 703 5
E 681 688 1
E 681 689 1
E 682 689 1
E 683 690 1
E 683 691 1
E 684 697 2
E 685 692 1
E 685 699 3
E 686 693 1
E 686 699 3
E 687 693 1
E 688 694 1
E 689 694 1
E 690 695 1
E 690 696 1
E 691 696 1
E 691 700 3
E 692 697 1
E 692 701 3
E 693 702 3
E 695 698 1
E 696 698 1
E 697 704 3
E 698 705 3
E 698 707 4
E 699 701 1
E 699 702 1
E 701 704 1
E 703 714 6
E 704 706 1
E 705 712 4
E 707 708 1
E 707 712 3
E 708 711 2
E 708 715 3
E 709 711 1
E 710 714 1
E 711 720 3
E 711 869 42
E 712 715 1
E 712 731 6
E 714 717 1
E 715 720 2
E 715 735 6
E 717 718 1
E 717 722 3
E 718 726 3
E 718 727 3
E 719 740 5
E 720 748 6
E 720 888 42
E 721 723 1
E 721 724 1
E 722 727 1
E 722 728 1
E 723 729 1
E 723 730 1
E 724 730 1
E 725 732 1
E 726 744 3
E 727 733 1
E 727 744 3
E 728 733 1
E 728 745 3
E 729 740 2
E 730 741 2
E 731 735 1
E 731 759 5
E 732 737 1
E 732 743 2
E 733 752 3
E 733 753 3
E 734 739 1
E 735 748 2
E 735 764 5
E 736 742 1
E 736 759 4
E 737 742 1
E 737 749 2
E 738 756 3
E 738 944 67
E 739 745 1
E 739 770 6
E 740 746 1
E 740 783 10
E 741 747 1
E 741 781 9
E 742 754 2
E 742 765 4
E 743 749 1
E 743 750 1
E 744 751 1
E 744 752 1
E 745 753 1
E 746 758 2
E 746 788 10
E 747 758 2
E 748 771 5
E 749 754 1
E 749 755 1
E 750 755 1
E 750 766 3
E 751 756 1
E 751 757 1
E 752 757 1
E 752 767 3
E 753 767 3
E 754 760 1
E 754 772 4
E 755 760 1
E 756 761 1
E 756 954 67
E 757 761 1
E 758 762 1
E 758 794 10
E 759 764 1
E 759 765 1
E 760 773 3
E 760 778 4
E 761 774 3
E 761 958 67
E 762 798 10
E 763 768 1
E 764 769 1
E 764 771 2
E 765 769 1
E 765 772 2
E 768 775 2
E 769 776 2
E 769 777 2
E 770 787 5
E 771 776 1
E 772 777 1
E 772 778 1
E 773 785 4
E 774 967 67
E 775 812 10
E 776 782 2
E 777 780 1
E 777 782 2
E 778 780 1
E 778 785 3
E 779 781 1
E 779 860 25
E 780 784 2
E 780 789 3
E 781 866 25
E 782 784 1
E 783 787 1
E 783 788 1
E 784 795 3
E 784 799 4
E 785 789 1
E 787 791 1
E 788 794 2
E 789 795 2
E 791 792 1
E 791 793 1
E 792 796 1
E 792 804 3
E 793 796 1
E 793 800 2
E 794 797 1
E 794 798 1
E 796 805 2
E 796 810 3
E 797 800 1
E 797 801 1
E 798 801 1
E 798 807 2
E 799 802 1
E 799 902 27
E 800 805 1
E 800 806 1
E 801 806 1
E 802 904 27
E 803 809 1
E 804 810 1
E 805 811 1
E 805 822 3
E 806 811 1
E 806 817 2
E 807 812 1
E 808 825 3
E 808 847 12
E 809 814 1
E 809 820 2
E 810 816 1
E 810 822 2
E 811 823 2
E 811 828 3
E 812 818 1
E 813 819 1
E 813 942 49
E 814 819 1
E 814 826 2
E 815 821 1
E 815 984 67
E 816 821 1
E 816 827 2
E 817 823 1
E 817 824 1
E 818 824 1
E 818 841 5
E 819 831 2
E 819 947 49
E 820 826 1
E 820 838 4
E 821 832 2
E 821 988 67
E 822 827 1
E 822 828 1
E 823 829 1
E 823 836 3
E 824 829 1
E 825 830 1
E 825 834 2
E 826 831 1
E 827 832 1
E 827 833 1
E 828 833 1
E 828 836 2
E 829 840 3
E 830 837 2
E 830 842 3
E 831 844 4
E 831 953 49
E 832 835 1
E 833 835 1
E 833 839 2
E 834 837 1
E 835 843 2
E 836 839 1
E 836 840 1
E 837 846 3
E 839 843 1
E 841 849 6
E 842 846 2
E 842 851 6
E 843 845 1
E 844 966 49
E 845 994 67
E 846 857 6
E 846 872 10
E 847 849 1
E 847 850 1
E 849 853 1
E 849 854 1
E 850 854 1
E 851 857 2
E 851 865 5
E 853 855 1
E 853 856 1
E 854 856 1
E 855 858 1
E 855 862 3
E 856 858 1
E 856 859 2
E 857 881 5
E 858 863 2
E 858 870 3
E 859 863 1
E 859 864 1
E 860 866 1
E 860 897 6
E 861 1020 79
E 862 870 1
E 863 871 1
E 863 884 3
E 864 871 1
E 864 885 3
E 865 873 1
E 865 881 2
E 866 873 1
E 866 896 5
E 867 874 1
E 867 875 1
E 868 875 1
E 869 876 1
E 869 888 3
E 870 879 1
E 870 884 2
E 871 890 3
E 871 891 3
E 872 880 1
E 873 886 2
E 873 901 6
E 874 882 1
E 876 893 3
E 877 983 49
E 877 999 60
E 878 883 1
E 879 883 1
E 879 889 2
E 880 885 1
E 880 903 6
E 881 886 1
E 881 911 10
E 882 887 1
E 882 896 3
E 883 894 2
E 883 1004 67
E 884 889 1
E 884 890 1
E 885 891 1
E 886 914 10
E 887 892 1
E 888 893 1
E 889 894 1
E 889 895 1
E 890 895 1
E 890 900 3
E 891 900 3
E 892 897 1
E 893 908 6
E 894 899 1
E 894 1007 67
E 895 899 1
E 899 905 3
E 899 1009 67
E 901 925 12
E 902 904 1
E 902 939 24
E 903 913 5
E 904 943 24
E 904 975 37
E 905 1016 67
E 906 907 1
E 907 909 1
E 907 910 1
E 908 919 5
E 909 912 1
E 909 929 12
E 910 912 1
E 910 921 6
E 911 913 1
E 911 914 1
E 912 923 6
E 913 916 1
E 914 925 6
E 916 917 1
E 916 918 1
E 917 922 3
E 918 926 6
E 919 920 1
E 920 924 2
E 921 923 1
E 923 937 12
E 925 927 3
E 926 930 3
E 927 928 1
E 927 929 1
E 928 930 1
E 930 931 1
E 932 936 3
E 932 952 10
E 933 935 1
E 933 938 5
E 934 944 6
E 935 940 5
E 936 946 5
E 936 962 10
E 938 940 1
E 938 941 1
E 939 943 1
E 939 956 5
E 940 945 1
E 941 945 1
E 941 949 2
E 942 947 1
E 943 959 5
E 944 948 1
E 944 954 3
E 945 951 2
E 946 965 6
E 946 973 10
E 947 953 2
E 948 950 1
E 948 957 3
E 949 951 1
E 949 952 1
E 950 960 3
E 950 1033 55
E 951 955 1
E 952 955 1
E 952 962 3
E 953 966 4
E 954 957 1
E 954 958 1
E 955 964 3
E 956 959 1
E 956 1059 66
E 957 960 1
E 957 961 1
E 958 961 1
E 958 967 3
E 959 1048 60
E 960 963 1
E 960 1036 55
E 961 963 1
E 961 970 3
E 962 964 1
E 962 973 5
E 963 971 3
E 963 1038 55
E 964 974 5
E 965 968 1
E 965 980 10
E 966 969 1
E 966 975 6
E 967 970 1
E 967 976 6
E 968 972 2
E 968 982 10
E 969 977 6
E 970 971 1
E 970 978 6
E 971 979 6
E 971 1044 55
E 972 989 10
E 973 974 1
E 973 980 6
E 974 981 6
E 975 977 1
E 975 983 5
E 976 978 1
E 976 984 5
E 977 986 5
E 978 979 1
E 978 987 5
E 979 990 5
E 980 981 1
E 980 982 1
E 981 985 1
E 981 997 10
E 982 985 1
E 982 989 2
E 983 986 1
E 984 987 1
E 984 988 1
E 985 992 2
E 985 998 10
E 986 1012 23
E 987 990 1
E 987 991 1
E 988 991 1
E 989 992 1
E 989 1012 22
E 990 993 1
E 990 1067 55
E 991 993 1
E 992 1001 10
E 994 995 1
E 994 1000 5
E 995 996 1
E 995 1002 5
E 996 1003 5
E 997 998 1
E 998 1001 2
E 999 1021 19
E 1000 1002 1
E 1002 1003 1
E 1003 1005 6
E 1004 1006 1
E 1004 1007 2
E 1005 1037 22
E 1006 1008 2
E 1007 1008 1
E 1007 1009 1
E 1008 1010 1
E 1008 1011 1
E 1009 1011 1
E 1009 1014 2
E 1010 1013 1
E 1010 1043 22
E 1011 1013 1
E 1011 1015 2
E 1013 1017 2
E 1013 1047 22
E 1014 1015 1
E 1014 1016 1
E 1015 1017 1
E 1015 1018 1
E 1016 1018 1
E 1016 1024 6
E 1017 1019 1
E 1017 1053 22
E 1018 1019 1
E 1018 1025 6
E 1019 1027 6
E 1019 1056 22
E 1021 1112 72
E 1022 1023 1
E 1022 1037 12
E 1023 1026 2
E 1023 1039 12
E 1024 1025 1
E 1024 1029 5
E 1025 1027 1
E 1025 1031 5
E 1026 1042 12
E 1026 1077 30
E 1027 1032 5
E 1027 1065 22
E 1029 1031 1
E 1030 1035 5
E 1031 1032 1
E 1032 1072 22
E 1033 1036 3
E 1034 1051 7
E 1034 1059 11
E 1036 1038 1
E 1037 1039 1
E 1037 1040 1
E 1038 1044 3
E 1039 1041 1
E 1039 1042 2
E 1040 1041 1
E 1040 1043 2
E 1041 1045 2
E 1041 1046 2
E 1042 1045 1
E 1042 1087 30
E 1043 1046 1
E 1043 1047 1
E 1045 1052 2
E 1045 1089 30
E 1046 1049 1
E 1046 1052 2
E 1047 1049 1
E 1047 1053 2
E 1048 1050 1
E 1048 1062 6
E 1049 1054 2
E 1049 1055 2
E 1050 1064 6
E 1050 1112 64
E 1051 1069 11
E 1052 1054 1
E 1052 1094 30
E 1053 1055 1
E 1053 1056 1
E 1054 1058 2
E 1054 1097 30
E 1055 1057 1
E 1055 1058 2
E 1056 1057 1
E 1056 1065 6
E 1057 1060 2
E 1057 1066 6
E 1058 1060 1
E 1058 1104 30
E 1059 1062 1
E 1059 1069 7
E 1060 1068 6
E 1060 1107 30
E 1061 1090 24
E 1062 1064 1
E 1062 1071 7
E 1064 1073 7
E 1065 1066 1
E 1065 1072 5
E 1066 1068 2
E 1066 1074 5
E 1067 1077 6
E 1068 1078 5
E 1068 1113 30
E 1069 1071 1
E 1069 1116 33
E 1070 1081 6
E 1071 1073 1
E 1071 1082 6
E 1072 1074 1
E 1072 1075 1
E 1073 1084 6
E 1074 1076 1
E 1074 1078 2
E 1075 1076 1
E 1075 1083 5
E 1076 1080 2
E 1077 1079 1
E 1077 1087 12
E 1078 1080 1
E 1078 1118 30
E 1079 1081 1
E 1079 1088 12
E 1080 1085 5
E 1080 1122 30
E 1081 1091 12
E 1082 1084 1
E 1082 1117 27
E 1084 1119 27
E 1085 1128 30
E 1086 1098 6
E 1087 1088 1
E 1087 1089 1
E 1088 1091 1
E 1088 1092 1
E 1089 1092 1
E 1089 1094 2
E 1091 1093 1
E 1092 1093 1
E 1092 1096 2
E 1093 1100 2
E 1094 1096 1
E 1094 1097 1
E 1095 1098 1
E 1095 1099 1
E 1096 1100 1
E 1096 1101 1
E 1097 1101 1
E 1097 1104 2
E 1098 1102 1
E 1098 1105 2
E 1099 1102 1
E 1100 1103 1
E 1101 1103 1
E 1101 1106 2
E 1102 1108 2
E 1103 1109 2
E 1103 1116 11
E 1104 1106 1
E 1104 1107 1
E 1105 1108 1
E 1105 1140 43
E 1106 1109 1
E 1106 1110 1
E 1107 1110 1
E 1107 1113 6
E 1108 1146 61
E 1109 1111 1
E 1109 1120 11
E 1110 1111 1
E 1110 1114 6
E 1111 1115 6
E 1112 1149 58
E 1113 1114 1
E 1113 1118 5
E 1114 1115 1
E 1114 1121 5
E 1115 1124 5
E 1116 1117 1
E 1116 1120 2
E 1117 1119 1
E 1117 1123 2
E 1118 1121 1
E 1118 1122 1
E 1119 1131 16
E 1120 1123 1
E 1121 1124 1
E 1121 1125 1
E 1122 1125 1
E 1122 1128 5
E 1124 1126 1
E 1125 1126 1
E 1125 1129 5
E 1126 1130 5
E 1128 1129 1
E 1129 1130 1
E 1130 1134 11
E 1131 1132 1
E 1132 1133 1
E 1133 1149 34
E 1134 1135 1
E 1134 1137 6
E 1135 1136 1
E 1135 1138 6
E 1136 1139 6
E 1137 1138 1
E 1137 1140 6
E 1138 1139 1
E 1138 1141 6
E 1139 1142 6
E 1139 1143 16
E 1140 1141 1
E 1141 1142 1
E 1143 1144 1
E 1144 1145 1
E 1145 1147 6
E 1146 1148 1
E 1149 1150 1
E 1 1151 100000
E 2 1151 100000
E 3 1151 100000
E 4 1151 100000
E 5 1151 100000
E 6 1152 100000
E 7 1153 100000
E 8 1153 100000
E 9 1153 100000
E 10 1153 100000
E 11 1153 100000
E 12 1154 100000
E 13 1154 100000
E 14 1155 100000
E 15 1155 100000
E 16 1156 100000
E 17 1156 100000
E 18 1157 100000
E 19 1157 100000
E 20 1157 100000
E 21 1157 100000
E 22 1158 100000
E 23 1158 100000
E 24 1159 100000
E 25 1159 100000
E 26 1160 100000
E 27 1160 100000
E 28 1161 100000
E 29 1161 100000
E 30 1161 100000
E 31 1161 100000
E 32 1161 100000
E 33 1162 100000
E 34 1163 100000
E 35 1164 100000
E 36 1165 100000
E 37 1165 100000
E 38 1165 100000
E 39 1165 100000
E 40 1166 100000
E 41 1166 100000
E 42 1166 100000
E 43 1166 100000
E 44 1166 100000
E 45 1167 100000
E 46 1167 100000
E 47 1168 100000
E 48 1168 100000
E 49 1169 100000
E 50 1169 100000
E 51 1170 100000
E 52 1170 100000
E 53 1170 100000
E 54 1170 100000
E 55 1171 100000
E 56 1171 100000
E 57 1171 100000
E 58 1171 100000
E 59 1172 100000
E 60 1172 100000
E 61 1172 100000
E 62 1172 100000
E 63 1173 100000
E 64 1173 100000
E 65 1173 100000
E 66 1173 100000
E 67 1173 100000
E 68 1174 100000
E 69 1174 100000
E 70 1174 100000
E 71 1174 100000
E 72 1175 100000
E 73 1175 100000
E 74 1175 100000
E 75 1175 100000
E 76 1176 100000
E 77 1176 100000
E 78 1176 100000
E 79 1176 100000
E 80 1176 100000
E 81 1177 100000
E 82 1177 100000
E 83 1177 100000
E 84 1177 100000
E 85 1178 100000
E 86 1178 100000
E 87 1178 100000
E 88 1178 100000
E 89 1179 100000
E 90 1179 100000
E 91 1179 100000
E 92 1179 100000
E 93 1180 100000
E 94 1180 100000
E 95 1180 100000
E 96 1180 100000
E 97 1180 100000
E 98 1181 100000
E 99 1181 100000
E 100 1182 100000
E 101 1182 100000
E 102 1182 100000
E 103 1182 100000
E 104 1183 100000
E 105 1183 100000
E 106 1183 100000
E 107 1183 100000
E 108 1183 100000
E 109 1184 100000
E 110 1184 100000
E 111 1184 100000
E 112 1184 100000
E 113 1185 100000
E 114 1185 100000
E 115 1185 100000
E 116 1185 100000
E 117 1185 100000
E 118 1186 100000
E 119 1186 100000
E 120 1187 100000
E 121 1187 100000
E 122 1187 100000
E 123 1187 100000
E 124 1188 100000
E 125 1188 100000
E 126 1188 100000
E 127 1188 100000
E 128 1188 100000
E 129 1189 100000
E 130 1189 100000
E 131 1190 100000
E 132 1190 100000
E 133 1190 100000
E 134 1190 100000
E 135 1191 100000
E 136 1192 100000
E 137 1193 100000
E 138 1194 100000
E 139 1194 100000
E 140 1194 100000
E 141 1194 100000
E 142 1194 100000
E 143 1195 100000
E 144 1196 100000
E 145 1196 100000
E 146 1196 100000
E 147 1196 100000
E 148 1197 100000
E 149 1197 100000
E 150 1197 100000
E 151 1197 100000
E 152 1198 100000
E 153 1198 100000
E 154 1198 100000
E 155 1198 100000
E 156 1198 100000
E 157 1198 100000
E 158 1199 100000
E 159 1199 100000
E 160 1200 100000
E 161 1200 100000
E 162 1200 100000
E 163 1200 100000
E 164 1201 100000
E 165 1201 100000
E 166 1202 100000
E 167 1202 100000
E 168 1203 100000
E 169 1203 100000
E 170 1203 100000
E 171 1203 100000
E 172 1203 100000
E 173 1204 100000
E 174 1205 100000
E 175 1206 100000
E 176 1207 100000
E 177 1207 100000
E 178 1207 100000
E 179 1207 100000
E 180 1208 100000
E 181 1208 100000
E 182 1208 100000
E 183 1208 100000
E 184 1209 100000
E 185 1209 100000
E 186 1210 100000
E 187 1210 100000
E 188 1211 100000
E 189 1211 100000
E 190 1212 100000
E 191 1212 100000
E 192 1212 100000
E 193 1212 100000
E 194 1212 100000
E 195 1213 100000
E 196 1213 100000
E 197 1213 100000
E 198 1213 100000
E 199 1213 100000
E 200 1214 100000
E 201 1214 100000
E 202 1214 100000
E 203 1214 100000
E 204 1215 100000
E 205 1216 100000
E 206 1217 100000
E 207 1218 100000
E 208 1219 100000
E 209 1219 100000
E 210 1219 100000
E 211 1219 100000
E 212 1220 100000
E 213 1220 100000
E 214 1220 100000
E 215 1220 100000
E 216 1220 100000
E 217 1220 100000
E 218 1221 100000
E 219 1153 100000
E 220 1153 100000
E 221 1153 100000
E 222 1153 100000
E 223 1157 100000
E 224 1161 100000
E 225 1166 100000
E 226 1172 100000
E 227 1173 100000
E 228 1176 100000
E 229 1179 100000
E 230 1180 100000
E 231 1183 100000
E 232 1185 100000
E 233 1188 100000
E 234 1194 100000
E 235 1198 100000
E 236 1198 100000
E 237 1198 100000
E 238 1198 100000
E 239 1201 100000
E 240 1201 100000
E 241 1201 100000
E 242 1201 100000
E 243 1202 100000
E 244 1202 100000
E 245 1202 100000
E 246 1202 100000
E 247 1203 100000
E 248 1209 100000
E 249 1209 100000
E 250 1209 100000
E 251 1209 100000
E 252 1209 100000
E 253 1210 100000
E 254 1210 100000
E 255 1210 100000
E 256 1210 100000
E 257 1210 100000
E 258 1211 100000
E 259 1211 100000
E 260 1211 100000
E 261 1211 100000
E 262 1213 100000
E 263 1220 100000
E 264 1220 100000
E 265 1220 100000
E 266 1220 100000
END 

SECTION Terminals 
Terminals 72
TP 1151 1187
TP 1152 1188
TP 1153 1189
TP 1154 1190
TP 1155 1191
TP 1156 1192
TP 1157 1193
TP 1158 1194
TP 1159 1195
TP 1160 1196
TP 1161 1197
TP 1162 1198
TP 1163 1199
TP 1164 1200
TP 1165 1201
TP 1166 1202
TP 1167 1203
TP 1168 1204
TP 1169 1205
TP 1170 1206
TP 1171 1207
TP 1172 1208
TP 1173 1209
TP 1174 1210
TP 1175 1211
TP 1176 1212
TP 1177 1213
TP 1178 1214
TP 1179 1215
TP 1180 1216
TP 1181 1217
TP 1182 1218
TP 1183 1219
TP 1184 1220
TP 1185 1221
TP 1186 322
END 
